NAME: Random_95_4
ELLAPSED_TIME_(ms): 1
TOUR_SIZE: 3064.4653
TOUR_SECTION
0
19
27
1
53
48
2
90
36
37
74
47
84
8
6
46
93
44
57
7
63
85
81
9
68
80
75
88
60
79
71
10
54
78
51
76
65
66
41
56
11
38
82
92
43
91
31
29
35
67
28
50
5
61
17
72
21
59
87
42
24
4
55
18
69
15
16
20
23
73
26
33
52
94
62
39
77
58
86
13
64
12
40
25
3
32
89
22
34
70
14
30
45
83
49
0
EOF
